1644133241620019293 -1 0
3096500931930997373 -2 0
h 3 0
350093442756108633 -4 0
656067006670843346 -5 0
h 6 0
h 2 0
h 1 0
831600057660275331 -3 0
h -7 5 0
h 7 8 0
305224768991827380 -9 0
2594621165777765853 -10 0
328628762755533439 -8 0
3797299977253118644 -6 0
4842574718293062323 -11 0
